
  22   10
  10   10   10   10   10   10   10   10   10   10

   0   0   0   0   0   0   0   0   0   0   0   6 2 5 6 7 9 10 
   6  10  10  10  10  10  10  10  10  10  10   2 4 3 
   8  10  10  10  10  10  10  10  10  10  10   8 21 20 19 18 17 14 13 12 
  10  10  10  10  10  10  10  10  10  10  10   4 21 20 13 8 
   2  10  10  10  10  10  10  10  10  10  10   7 21 19 18 17 16 13 12 
   6  10  10  10  10  10  10  10  10  10  10   4 20 18 13 11 
   3  10  10  10  10  10  10  10  10  10  10   5 18 17 16 13 12 
   3  10  10  10  10  10  10  10  10  10  10   2 17 11 
   6  10  10  10  10  10  10  10  10  10  10   2 19 11 
   8  10  10  10  10  10  10  10  10  10  10   1 11 
  10  10  10  10  10  10  10  10  10  10  10   2 16 12 
  10  10  10  10  10  10  10  10  10  10  10   1 15 
   5  10  10  10  10  10  10  10  10  10  10   1 15 
   3  10  10  10  10  10  10  10  10  10  10   1 16 
   1  10  10  10  10  10  10  10  10  10  10   1 22
   6  10  10  10  10  10  10  10  10  10  10   1 22
   9  10  10  10  10  10  10  10  10  10  10   1 22
   2  10  10  10  10  10  10  10  10  10  10   1 22
   9  10  10  10  10  10  10  10  10  10  10   1 22
   3  10  10  10  10  10  10  10  10  10  10   1 22
   2  10  10  10  10  10  10  10  10  10  10   1 22
   0   0   0   0   0   0   0   0   0   0   0   0 
